NAME : portcgen-15-30
COMMENT : portcgen N=15, seed=30
TYPE : TSP
DIMENSION : 15
EDGE_WEIGHT_TYPE : EUC_2D
NODE_COORD_SECTION
1 88 79
2 84 55
3 114 106
4 101 92
5 75 91
6 82 73
7 92 81
8 87 62
9 83 105
10 56 108
11 83 75
12 95 108
13 85 69
14 51 85
15 81 77
